22006.0
20, 96, 113, 120, 157, 169, 176, 211, 265, 271, 292, 305, 318, 375, 391, 422, 475, 479, 487, 490, 495, 498, 503, 505, 507, 533, 538, 562, 567, 574, 578, 583, 589, 597, 605, 607, 662, 664, 665, 668, 675, 698, 727, 739, 758, 799, 821, 833, 842, 849, 852, 883, 895, 933, 946, 952, 986, 988, 1001, 1053, 1062, 1097, 1103, 1104, 1109, 1111, 1133, 1167, 1184, 1189, 1196, 1205, 1206, 1220, 1224, 1255, 1261, 1295, 1314, 1344, 1351, 1367, 1376, 1379, 1385, 1436, 1441, 1445, 1463, 1464, 1471, 1472, 1474, 1486, 1493, 1504, 1506, 1539, 1540, 1561, 1599, 1615, 1651, 1656, 1657, 1660, 1676, 1679, 1689, 1695, 1710, 1764, 1815, 1827, 1834, 1835, 1870, 1890, 1899, 1945, 1978, 1984